certificates/rado_a15_c74_N29.drat
-28 -29 0
d -28 -5 -29 0
14 15 28 0
-5 -14 0
15 28 0
d 14 15 28 0
-29 0
28 0
-5 -15 0
5 0
-4 0
-6 0
-14 0
-27 0
-15 0
18 0
0
